Version identifier: 12.10.0.0 | 2019-11-26 | 843d4de
CPXPARAM_WorkMem                                 28672
Tried aggregator 2 times.
Aggregator did 20 substitutions.
Reduced MIP has 73 rows, 90 columns, and 351 nonzeros.
Reduced MIP has 90 binaries, 0 generals, 0 SOSs, and 0 indicators.
Presolve time = 0,00 sec. (0,32 ticks)
Found incumbent of value 342,000000 after 0,00 sec. (0,62 ticks)
Probing time = 0,00 sec. (0,11 ticks)
Tried aggregator 1 time.
Detecting symmetries...
MIP Presolve eliminated 12 rows and 0 columns.
MIP Presolve added 24 rows and 0 columns.
Reduced MIP has 85 rows, 90 columns, and 363 nonzeros.
Reduced MIP has 90 binaries, 0 generals, 0 SOSs, and 0 indicators.
Presolve time = 0,00 sec. (0,40 ticks)
Probing time = 0,00 sec. (0,11 ticks)
Clique table members: 241.
MIP emphasis: balance optimality and feasibility.
MIP search method: dynamic search.
Parallel mode: deterministic, using up to 16 threads.
Root relaxation solution time = 0,00 sec. (0,20 ticks)

        Nodes                                         Cuts/
   Node  Left     Objective  IInf  Best Integer    Best Bound    ItCnt     Gap

*     0+    0                          342,0000        0,0000           100,00%
*     0+    0                          271,0000        0,0000           100,00%
*     0+    0                          234,0000        0,0000           100,00%
      0     0      114,0000    75      234,0000      114,0000       28   51,28%
      0     0      114,4675    75      234,0000      Cuts: 88       88   51,08%
      0     0      115,6902    75      234,0000     Cuts: 110      112   50,56%
      0     0      116,3492    75      234,0000      Cuts: 70      125   50,28%
      0     0      117,2209    75      234,0000      Cuts: 19      136   49,91%
      0     0      117,3276    75      234,0000      Cuts: 66      147   49,86%
      0     0      124,1503    75      234,0000      Cuts: 11      182   46,94%
      0     0      124,1824    75      234,0000      Cuts: 42      184   46,93%
      0     0      124,2066    75      234,0000   ZeroHalf: 2      187   46,92%
      0     0      124,3520    75      234,0000      Cuts: 31      196   46,86%
      0     0      124,3773    75      234,0000      Cuts: 20      201   46,85%
*     0+    0                          233,0000      124,3773            46,62%
      0     0      124,4041    75      233,0000      Cuts: 33      205   46,61%
      0     0      124,4070    75      233,0000       Cuts: 8      206   46,61%
      0     0      124,4345    75      233,0000      Cuts: 14      210   46,59%
      0     0      124,4380    75      233,0000      Cuts: 22      213   46,59%
*     0+    0                          221,0000      124,4380            43,69%
      0     0        cutoff            221,0000      221,0000      213    0,00%
Elapsed time = 0,05 sec. (30,85 ticks, tree = 0,01 MB, solutions = 5)

Clique cuts applied:  7
Cover cuts applied:  21
Mixed integer rounding cuts applied:  23
Zero-half cuts applied:  7
Lift and project cuts applied:  1
Gomory fractional cuts applied:  5

Root node processing (before b&c):
  Real time             =    0,05 sec. (30,86 ticks)
Parallel b&c, 16 threads:
  Real time             =    0,00 sec. (0,00 ticks)
  Sync time (average)   =    0,00 sec.
  Wait time (average)   =    0,00 sec.
                          ------------
Total (root+branch&cut) =    0,05 sec. (30,86 ticks)
